NAME: GRASP_10_4
TYPE: TSP
COMMENT: line_10_4
DIMENSION: 10
EDGE_WEIGHT_TYPE: EUC_2D
NODE_COORD_SECTION
1 0.0 98.0
2 0.0 66.0
3 0.0 7.0
4 0.0 19.0
5 0.0 44.0
6 0.0 29.0
7 0.0 57.0
8 0.0 7.0
9 0.0 7.0
10 0.0 60.0
